c Generated map
c Size: 13 * 13, weights in range: 1 to 10, walls: True, with ratio 0.4
c dim 1 of 3
c
p sp 169 110
c graph contains 169 nodes and 110 arcs
c
a 3 4 1
a 4 3 1
a 6 19 3
a 19 6 3
a 6 7 9
a 7 6 9
a 7 20 6
a 20 7 6
a 9 22 4
a 22 9 4
a 13 26 2
a 26 13 2
a 18 19 4
a 19 18 4
a 19 32 8
a 32 19 8
a 19 20 8
a 20 19 8
a 20 33 7
a 33 20 7
a 20 21 8
a 21 20 8
a 21 34 3
a 34 21 3
a 21 22 10
a 22 21 10
a 22 35 10
a 35 22 10
a 22 23 7
a 23 22 7
a 23 36 7
a 36 23 7
a 23 24 2
a 24 23 2
a 24 37 8
a 37 24 8
a 24 25 9
a 25 24 9
a 25 38 5
a 38 25 5
a 25 26 8
a 26 25 8
a 26 39 3
a 39 26 3
a 32 33 8
a 33 32 8
a 33 46 1
a 46 33 1
a 33 34 5
a 34 33 5
a 34 35 6
a 35 34 6
a 35 48 5
a 48 35 5
a 35 36 7
a 36 35 7
a 36 49 10
a 49 36 10
a 36 37 8
a 37 36 8
a 37 38 7
a 38 37 7
a 38 39 5
a 39 38 5
a 46 59 2
a 59 46 2
a 48 61 9
a 61 48 9
a 48 49 7
a 49 48 7
a 54 67 9
a 67 54 9
a 54 55 8
a 55 54 8
a 55 68 4
a 68 55 4
a 59 60 1
a 60 59 1
a 60 61 1
a 61 60 1
a 61 74 4
a 74 61 4
a 63 64 8
a 64 63 8
a 64 77 1
a 77 64 1
a 64 65 4
a 65 64 4
a 67 80 10
a 80 67 10
a 67 68 7
a 68 67 7
a 68 81 6
a 81 68 6
a 68 69 9
a 69 68 9
a 69 82 9
a 82 69 9
a 69 70 1
a 70 69 1
a 70 83 6
a 83 70 6
a 70 71 3
a 71 70 3
a 71 84 8
a 84 71 8
a 74 87 3
a 87 74 3
a 74 75 9
a 75 74 9
a 80 81 4
a 81 80 4
a 81 94 4
a 94 81 4
a 81 82 6
a 82 81 6
a 82 83 2
a 83 82 2
a 83 96 1
a 96 83 1
a 83 84 7
a 84 83 7
a 84 97 9
a 97 84 9
a 87 100 2
a 100 87 2
a 91 104 2
a 104 91 2
a 96 109 6
a 109 96 6
a 96 97 4
a 97 96 4
a 97 98 4
a 98 97 4
a 98 99 3
a 99 98 3
a 99 112 5
a 112 99 5
a 99 100 2
a 100 99 2
a 100 113 10
a 113 100 10
a 100 101 2
a 101 100 2
a 103 104 4
a 104 103 4
a 108 121 4
a 121 108 4
a 108 109 8
a 109 108 8
a 109 122 3
a 122 109 3
a 112 125 7
a 125 112 7
a 112 113 2
a 113 112 2
a 113 126 10
a 126 113 10
a 119 120 6
a 120 119 6
a 120 121 2
a 121 120 2
a 121 134 9
a 134 121 9
a 121 122 5
a 122 121 5
a 125 138 6
a 138 125 6
a 125 126 1
a 126 125 1
a 126 139 5
a 139 126 5
a 128 141 1
a 141 128 1
a 128 129 7
a 129 128 7
a 129 142 3
a 142 129 3
a 129 130 8
a 130 129 8
a 130 143 9
a 143 130 9
a 136 137 7
a 137 136 7
a 137 138 2
a 138 137 2
a 138 151 1
a 151 138 1
a 138 139 10
a 139 138 10
a 141 154 7
a 154 141 7
a 141 142 3
a 142 141 3
a 142 143 2
a 143 142 2
a 143 156 4
a 156 143 4
a 145 146 6
a 146 145 6
a 151 164 6
a 164 151 6
a 154 167 8
a 167 154 8
a 156 169 4
a 169 156 4
a 160 161 1
a 161 160 1
a 161 162 4
a 162 161 4
a 162 163 1
a 163 162 1
a 163 164 7
a 164 163 7
a 164 165 10
a 165 164 10
a 167 168 4
a 168 167 4
a 168 169 4
a 169 168 4
